Route #1: 47 4 18
Route #2: 17 42 40 19 41 13 25 14
Route #3: 5 49 10 39 33 45 15 44 37 12
Route #4: 11 16 29 21 50 34 30 9 38 46
Route #5: 27 1 22 28 3 36 35 20 2 32
Route #6: 6 23 24 43 7 26 31 8 48
Cost 548
